10 -446388
15 -446388
20 -446388
25 -446388
30 -446388
35 -446388
40 -446388
45 -446388
50 -446388
55 -446388
60 -446388
65 -446388
70 -446388
75 -446388
80 -446388
85 -446388
90 -446388
95 -446388
100 -443434
105 -443434
110 -443434
115 -443434
120 -443434
125 -443434
130 -443434
135 -443434
140 -443434
145 -443434
150 -443434
155 -443434
160 -443434
165 -443434
170 -443434
175 -443434
180 -443434
185 -443434
190 -443434
195 -443434
200 -443434
205 -443434
210 -443434
215 -443434
220 -443434
225 -443434
230 -443434
235 -437340
240 -437340
245 -437340
250 -437340
255 -437340
260 -437340
265 -437340
